p cnf 299 200
-14 -28 0
-1 0
-7 -24 0
-6 -14 0
-10 -14 -21 0
-3 0
-12 -15 -17 -19 -23 -30 -31 0
-33 -34 0
-43 -44 -45 -46 -47 -49 -50 -51 -52 -54 -55 -58 -60 0
-14 -55 0
-23 -46 0
-23 -28 0
-42 -43 -45 -50 -52 -55 -58 0
-15 -21 -28 0
-39 -45 -58 -60 0
-34 -54 -55 -58 0
-34 -36 -54 -55 0
-39 -42 -44 -49 -55 -60 0
-34 -42 -53 -55 0
-34 -65 -66 0
-74 -75 -77 -82 -83 -84 -87 -88 -90 0
-55 -74 -75 -77 -82 -83 -84 -87 -88 0
-34 -55 -74 -75 -77 -82 -84 -87 0
-55 -71 -74 -77 -91 0
-34 -55 -71 -77 0
-74 -77 -83 -92 -95 0
-34 -68 -74 -75 -77 -82 -84 -86 -89 -91 0
-34 -74 -98 0
-54 -55 -74 -108 -110 -113 -115 -119 -121 -124 0
-34 -55 -74 -106 0
-34 -68 -69 -73 -74 0
-34 -55 -74 -103 0
-34 -55 -130 -131 0
-28 -34 -74 -130 -133 0
-39 -74 -130 -135 -145 0
-34 -74 -130 -147 0
-34 -55 -74 -151 0
-28 -34 -74 -130 -155 0
-34 -55 -74 -163 0
-34 -55 -74 -130 -166 0
-34 -55 -74 -130 -167 0
-34 -55 -74 -130 -170 0
-34 -55 -74 -130 -188 0
-34 -55 -74 -172 -175 -177 -179 -190 -191 0
-55 -74 -199 0
-34 -55 -74 -202 0
-28 -34 -54 -74 -130 -214 0
-74 -231 -232 0
-55 -74 -234 0
-34 -74 -130 -239 -240 0
-266 0
-34 -74 -130 -239 -278 0
-39 -49 -74 -130 -239 -278 0
-33 -43 -44 -45 -46 -47 -49 -50 -51 -52 -55 -60 0
-36 -43 -44 -45 -46 -47 -49 -50 -51 -52 -54 -55 -60 0
-46 -49 -60 -65 -66 0
-46 -49 -60 -68 -74 -75 -77 -82 -84 -86 -89 -91 0
-44 -46 -47 -49 -51 -60 -74 -98 0
-46 -49 -60 -71 -77 0
-44 -46 -47 -49 -51 -60 -74 -106 0
-44 -46 -47 -49 -51 -60 -68 -69 -73 -74 0
-44 -46 -47 -49 -51 -60 -74 -103 0
-46 -49 -60 -130 -131 0
-44 -46 -47 -49 -51 -60 -74 -130 -133 0
-44 -46 -47 -49 -51 -60 -74 -130 -147 0
-44 -46 -47 -49 -51 -60 -74 -151 0
-44 -46 -47 -49 -51 -60 -74 -130 -155 0
-44 -46 -47 -49 -51 -60 -74 -163 0
-44 -46 -47 -49 -51 -60 -74 -130 -166 0
-46 -49 -60 -74 -130 -167 0
-46 -49 -60 -74 -130 -170 0
-44 -46 -47 -49 -51 -60 -74 -130 -188 0
-44 -46 -47 -49 -51 -60 -74 -172 -175 -177 -179 -190 -191 0
-46 -49 -60 -74 -202 0
-44 -46 -47 -49 -51 -54 -60 -74 -130 -214 0
-44 -46 -47 -49 -51 -60 -74 -130 -239 -240 0
-44 -46 -47 -49 -51 -60 -74 -130 -239 -279 0
-297 -299 -304 -306 -308 -312 -315 0
-289 0
-302 -304 -306 -308 -310 -312 0
-293 0
-291 0
-321 0
-312 -325 0
-309 -325 0
-324 -328 -334 -336 -338 -340 -342 -344 -347 0
-323 -324 0
-323 -326 -327 -329 -335 -337 -344 -348 -352 0
-326 -327 -335 -337 -344 -348 -353 0
-323 -326 -327 -335 -337 -344 -348 -356 0
-323 -326 -327 -335 -337 -344 -348 -367 -369 -376 -380 0
-323 -326 -327 -329 -335 -337 -344 -348 -373 0
-323 -326 -327 -335 -337 -344 -348 -377 0
-386 -388 -389 -390 -391 -392 -393 -395 -397 -399 -404 -405 -406 -408 0
-385 -387 -389 -390 -391 -393 -395 -396 -397 -398 -399 -401 -403 -404 -405 -409 -410 -412 -413 0
-385 -386 -387 -388 -389 -390 -391 -393 -399 0
-385 -386 -387 -388 -389 -391 -392 -393 -395 -397 -402 -404 -405 -411 -416 0
-387 -388 -390 -391 -392 -393 -395 -396 -397 -398 -401 -403 -404 -405 -406 -408 -413 0
-418 -420 -421 -422 -423 -425 -426 -427 -431 -433 -436 -440 -442 -444 0
-420 -422 -423 -424 -425 -427 -429 -431 -432 -436 -437 -440 -441 -445 0
-385 -386 -387 -388 -389 -390 -391 -431 0
-323 -326 -327 -335 -337 -344 -348 -386 -392 0
-385 -386 -387 -388 -389 -390 -423 -424 0
-385 -387 -388 -390 -391 -393 -395 -396 -398 -401 -402 -403 -404 -405 -408 -409 -410 -412 -413 0
-385 -386 -387 -388 -389 -390 -391 -437 -440 0
-328 -340 -344 -345 -385 -390 -391 -393 -405 -408 -416 0
-328 -340 -344 -345 -346 -390 -393 -425 -440 -441 -443 0
-385 -386 -387 -388 -389 -390 -455 -457 -463 0
-452 -454 -455 -457 -459 -461 -466 -469 -472 -473 -475 -477 0
-340 -344 -345 -347 -393 -404 -408 -409 -411 -422 -423 -425 -436 -440 -446 -457 -461 -472 -473 -475 0
-340 -344 -345 -347 -393 -404 -408 -409 -411 -425 -436 -440 -457 -464 -468 -472 -473 -478 -480 0
-340 -344 -345 -347 -386 -389 -393 -404 -408 -409 -411 -425 -436 -440 -455 -457 -468 -472 -478 0
-345 -385 -386 -387 -388 -389 -390 -440 -455 -456 0
-385 -386 -457 -459 -461 -464 -466 -468 -469 -472 -473 -477 -480 0
-385 -386 -387 -388 -389 -390 -455 -457 -469 -472 0
-345 -385 -386 -387 -388 -390 -393 -395 -402 -404 -408 -410 -412 -415 -425 -427 -434 -436 -440 -446 -447 0
-345 -385 -386 -387 -388 -389 -390 -391 -393 0
-323 -326 -327 -335 -337 -344 -348 -385 -393 -444 0
-385 -386 -387 -456 -457 -459 -461 -464 -466 -468 -473 -475 -477 -480 0
-326 -327 -335 -337 -340 -344 -346 -348 -393 -395 -397 -402 -404 -408 -409 -411 -423 -425 -436 -440 -441 -443 0
-326 -327 -335 -337 -340 -344 -346 -348 -385 -386 -404 -423 -425 -454 -457 -459 -473 -475 -477 -480 -487 -488 0
-326 -327 -335 -337 -340 -344 -346 -348 -385 -386 -387 -388 -389 -423 -425 -455 -457 -459 -475 -477 -480 0
-326 -327 -328 -329 -334 -336 -338 -340 -341 -342 -344 -367 -369 0
-323 -326 -327 -335 -337 -344 -348 -385 -412 -455 -456 0
-323 -326 -327 -335 -337 -344 -348 -385 -411 -412 -416 0
-323 -326 -327 -335 -337 -344 -348 -385 -412 -425 0
-323 -326 -327 -335 -337 -344 -348 -385 -412 -487 -488 0
-385 -386 -387 -388 -389 -422 -489 -491 -493 -495 -498 -500 -504 -505 -507 -508 -509 0
-326 -327 -335 -337 -340 -344 -346 -348 -390 -393 -395 -397 -402 -404 -408 -409 -411 -412 -436 -466 -468 -489 -491 -498 -500 -504 -505 -507 0
-326 -327 -335 -337 -340 -344 -346 -348 -393 -404 -409 -411 -420 -422 -436 -468 -480 -487 -489 -491 -495 -500 -504 -505 -510 0
-385 -386 -387 -388 -389 -422 -487 -489 -492 -495 -504 -508 0
-385 -386 -387 -388 -389 -390 -487 -489 -495 0
-385 -386 -387 -390 -487 -489 -491 -500 -501 -504 -512 0
-385 -386 -387 -388 -389 -390 -487 -489 -501 -504 0
-326 -327 -335 -337 -340 -344 -348 -385 -388 -390 -391 -393 -395 -404 -405 -408 -409 -410 -411 -412 -429 -440 -441 -443 0
-326 -327 -335 -337 -340 -344 -346 -348 -391 -393 -404 -408 -409 -411 -421 -423 -440 -441 -457 -489 -491 -494 -498 -504 -509 -512 -519 -520 0
-323 -326 -327 -335 -337 -344 -348 -385 -409 -411 -412 0
-323 -326 -327 -335 -337 -344 -348 -385 -390 -412 0
-323 -326 -327 -335 -337 -344 -348 -385 -390 -393 0
-327 -335 -337 -393 -417 -418 -419 -420 -454 -457 -459 -461 -464 -466 -468 -469 -473 -475 -488 -489 0
-386 -387 -390 -391 -393 -395 -397 -399 -401 -404 -406 -408 -410 -412 -413 -416 0
-452 -454 -455 -456 -457 -459 -461 -466 -468 -473 -475 -477 -480 0
-308 -345 -347 -408 -418 -420 -421 -427 -434 -436 -443 -454 -457 -473 -475 -480 -489 -491 -498 -500 -501 -504 -505 -507 0
-308 -340 -345 -347 -391 -393 -395 -404 -408 -409 -410 -416 -418 -421 -436 -457 -477 -489 -491 -498 -500 -504 -505 -507 0
-408 -418 -420 -424 -434 -436 -443 -454 -457 -463 -473 -475 -477 -480 -487 -488 -489 -493 -505 -507 0
-417 -420 -422 -424 -426 -427 -429 -431 -434 -436 -438 -440 -442 -444 -445 -447 0
-326 -327 -328 -329 -331 -336 -338 -340 -344 -345 -347 -367 -369 0
-452 -454 -457 -459 -461 -463 -464 -466 -468 -469 -473 -477 -480 0
-408 -412 -452 -454 -455 -457 -459 -461 -463 -466 -468 -469 -473 -475 -477 0
-453 -454 -488 -489 -491 -493 -495 -504 -505 -507 -509 -512 0
-418 -422 -488 -489 -491 -493 -500 -504 -505 -507 -509 -512 0
-417 -418 -419 -420 -421 -422 -489 -491 -493 -495 -498 -500 -504 -505 -507 -508 -509 0
-484 -486 -489 -491 -493 -495 -498 -500 -501 -504 -505 -507 -508 -509 0
-417 -418 -451 -452 -453 -454 -489 -491 -493 -495 -498 -500 -504 -505 -507 -508 -509 0
-484 -489 -491 -493 -495 -497 -498 -500 -501 -502 -503 -504 -505 -507 -508 -509 0
-417 -418 -487 -489 -491 -493 -495 -500 -501 -502 -504 -505 -506 -507 -508 -509 -510 0
-393 -405 -408 -416 -417 -418 -451 -456 -488 -518 -519 -520 0
-393 -405 -408 -411 -416 -417 -418 -487 -488 -489 -519 -520 -523 -527 -529 -535 -536 -537 -539 0
-422 -430 -440 -444 -448 -484 -485 -519 -521 -523 -527 -529 -532 -533 -535 -536 -537 -539 0
-417 -418 -448 -519 -521 -523 -526 -527 -529 -530 -532 -536 -541 -542 0
-417 -418 -451 -519 -521 -524 -526 -527 -529 -531 -533 -538 -540 -541 -544 0
-393 -405 -408 -411 -417 -418 -456 -488 -520 -550 -551 -552 0
-393 -405 -408 -417 -422 -424 -428 -430 -431 -433 -435 -437 -440 -442 -444 -445 -448 -456 -488 -550 -551 -552 0
-553 -555 -559 -561 -562 -564 -565 -567 -568 -569 -570 -571 -572 -573 0
-420 -421 -431 -436 -440 -488 -489 -491 -495 -497 -498 -500 -505 -507 -553 -555 -559 -561 -562 -564 -565 -568 -569 -571 0
-420 -421 -424 -427 -434 -436 -443 -489 -491 -495 -497 -498 -500 -501 -504 -505 -553 -555 -562 -564 -565 -568 -569 0
-418 -420 -421 -424 -436 -443 -489 -491 -498 -500 -501 -504 -505 -507 -553 -555 -562 -564 -565 -568 0
-443 -489 -491 -495 -497 -498 -500 -501 -504 -505 -507 -509 -550 -551 -553 -559 -564 0
-408 -417 -418 -420 -421 -427 -434 -436 -437 -440 -441 -442 -444 -447 -454 -457 -489 -491 -493 -498 -500 -501 -504 -505 -507 -508 -509 0
-323 -326 -327 -335 -337 -344 -348 -437 -440 -441 -443 -444 0
-452 -453 -454 -484 -487 -489 -491 -495 -501 -502 -504 -505 -506 -507 -508 -509 -510 0
-418 -420 -422 -424 -428 -430 -432 -434 -436 -438 -440 -442 -444 -448 0
-450 -451 -452 -453 -454 -489 -491 -493 -495 -498 -500 -504 -505 -507 -508 -509 0
-444 -454 -457 -475 -477 -480 -487 -489 -491 -495 -498 -500 -501 -504 -505 -507 -509 -510 0
-427 -434 -436 -438 -440 -487 -489 -491 -495 -498 -500 -501 -504 -505 -507 -509 -510 -521 -523 -530 -532 -536 0
-323 -326 -327 -335 -337 -344 -348 -489 -501 -504 -505 -507 0
-482 -483 -485 -519 -521 -524 -526 -527 -529 -531 -533 -538 -540 -541 -544 0
-484 -487 -488 -489 -491 -493 -495 -497 -500 -502 -503 -504 -505 -507 -509 0
-420 -422 -424 -426 -427 -429 -431 -434 -436 -438 -440 -442 -444 -445 -447 -521 -536 -544 -551 -552 0
-420 -422 -424 -427 -434 -436 -438 -440 -442 -444 -447 -486 -489 -491 -495 -498 -500 -504 -505 -507 -509 0
-420 -422 -424 -426 -427 -429 -431 -434 -436 -438 -440 -442 -444 -445 -447 -453 -454 -487 -489 -495 -504 -510 0
-422 -431 -444 -482 -487 -488 -489 -491 -495 -498 -500 -504 -505 -506 -507 -508 -509 -510 0
-450 -484 -487 -488 -489 -491 -493 -495 -500 -502 -504 -505 -506 -507 -508 -509 -510 0
-516 -518 -521 -523 -526 -527 -530 -531 -533 -536 -541 -544 0
-517 -519 -521 -523 -526 -527 -529 -530 -533 -536 -541 -544 0
-518 -520 -521 -523 -524 -526 -527 -529 -530 -531 -533 -536 -541 -544 0
-518 -520 -521 -523 -524 -526 -527 -529 -530 -531 -532 -533 -536 -538 -540 -541 0
-420 -422 -424 -426 -427 -429 -431 -434 -436 -438 -440 -442 -444 -445 -447 -489 -491 -498 -500 -504 -521 -523 -530 -532 -536 0
-326 -327 -328 -329 -334 -335 -336 -337 -338 -340 -342 -344 -348 -367 -369 0
-515 -516 -517 -518 -519 -521 -524 -526 -527 -531 -533 -536 -540 -541 0
-516 -518 -519 -521 -524 -525 -527 -529 -533 -536 -537 -538 -540 -541 0
-516 -518 -519 -521 -526 -527 -529 -533 -536 -538 -540 -541 -543 0
-408 -424 -456 -488 -521 -526 -527 -536 -550 -551 -552 0
-548 -550 -551 -553 -555 -557 -562 -565 -568 -569 -571 -573 0
-548 -550 -551 -553 -555 -559 -562 -565 -568 -569 -570 -571 -572 -573 0
-551 -553 -558 -559 -560 -561 -562 -565 -567 -568 -569 -570 -571 -572 -573 0
-547 -549 -551 -553 -556 -558 -559 -561 -563 -565 -570 -572 -573 -576 0
-424 -427 -434 -436 -438 -447 -488 -489 -491 -498 -500 -504 -505 -507 -551 -553 -556 -558 -559 -561 -565 -570 -571 -572 0
-444 -488 -489 -491 -498 -500 -505 -507 -551 -553 -555 -559 -561 -565 -568 -569 0
-420 -422 -424 -426 -427 -429 -431 -434 -436 -438 -440 -442 -444 -445 -447 -551 -553 -559 -561 -567 -568 0
